============================[ Problem Statistics ]=============================|                                                                             ||  Number of variables:          4242                                         ||  Number of clauses:           10070                                         ||  Parse time:                   0.46 s                                       ||                                                                             |============================[ Search Statistics ]==============================| Conflicts |          ORIGINAL         |          LEARNT          | Progress ||           |    Vars  Clauses Literals |    Limit  Clauses Lit/Cl |          |===============================================================================|       100 |    1591     6275   730926 |     2300      100     53 | 62.501 % ||       250 |    1591     6275   730926 |     2530      250     75 | 62.495 % |===============================================================================restarts              : 3conflicts             : 259            (371 /sec)decisions             : 524            (0.00 % random) (750 /sec)propagations          : 11771          (16840 /sec)conflict literals     : 19739          (94.87 % deleted)CPU time              : 0.699 sSATISFIABLE